15
3 2 1
4 2 1
4 3 1
5 0 1
5 1 1
5 2 1
5 4 1
6 1 1
6 2 1
6 3 1
7 2 1
7 3 1
7 5 1
8 3 1
8 4 1
9 0 1
9 1 1
9 4 1
9 5 1
9 6 1
9 7 1
9 8 1
10 2 1
10 5 1
10 8 1
10 9 1
11 0 1
11 1 1
11 5 1
11 8 1
12 2 1
12 3 1
12 6 1
12 7 1
12 8 1
12 10 1
13 0 1
13 1 1
13 3 1
13 4 1
13 6 1
13 7 1
13 10 1
13 11 1
13 12 1
14 0 1
14 1 1
14 2 1
14 4 1
14 5 1
14 6 1
14 7 1
14 8 1
14 10 1
14 11 1
14 13 1
